
List of user-set options:

                                    Name   Value                used
                         derivative_test = first-order           yes
                        file_print_level = 5                     yes
                   hessian_approximation = limited-memory        yes
                                  hsllib = /home/ggs24/packages/ThirdParty-HSL/.libs/libcoinhsl.so  yes
                           linear_solver = ma97                  yes
                                max_iter = 200                   yes
                             output_file = IPOPT.out             yes
                             print_level = 5                     yes
                      print_user_options = yes                   yes
                                      sb = yes                   yes
This is Ipopt version 3.14.7, running with linear solver ma97.

Starting derivative checker for first derivatives.


No errors detected by derivative checker.

Number of nonzeros in equality constraint Jacobian...:        0
Number of nonzeros in inequality constraint Jacobian.:       13
Number of nonzeros in Lagrangian Hessian.............:        0

Total number of variables............................:       13
                     variables with only lower bounds:        0
                variables with lower and upper bounds:       13
                     variables with only upper bounds:        0
Total number of equality constraints.................:        0
Total number of inequality constraints...............:        1
        inequality constraints with only lower bounds:        0
   inequality constraints with lower and upper bounds:        0
        inequality constraints with only upper bounds:        0

iter    objective    inf_pr   inf_du lg(mu)  ||d||  lg(rg) alpha_du alpha_pr  ls
   0  5.2200608e+01 0.00e+00 6.68e+01   0.0 0.00e+00    -  0.00e+00 0.00e+00   0
   1  1.5414315e+03 0.00e+00 1.02e+01   0.7 7.31e+00    -  8.00e-02 3.97e-01f  1
   2  3.8953455e+01 0.00e+00 1.03e+01   0.7 7.04e+00    -  6.55e-01 6.19e-01f  1
   3  3.1239981e+01 0.00e+00 2.31e-01  -0.9 2.78e-01    -  9.89e-01 1.00e+00f  1
   4  2.5902493e+01 0.00e+00 1.05e-01  -2.3 3.45e-01    -  9.97e-01 1.00e+00f  1
   5  2.5749836e+01 0.00e+00 4.44e-02  -3.7 5.50e-02    -  9.91e-01 1.00e+00f  1
   6  2.4955975e+01 0.00e+00 6.38e-02  -4.0 1.18e+00    -  1.00e+00 4.17e-01f  1
   7  2.4423678e+01 0.00e+00 4.90e-02  -2.5 1.96e-01    -  9.74e-01 1.00e+00f  1
   8  2.3840819e+01 0.00e+00 4.83e-02  -3.3 6.08e-01    -  9.96e-01 9.69e-01f  1
   9  2.3475308e+01 0.00e+00 8.58e-03  -4.2 5.37e-01    -  1.00e+00 7.60e-01f  1
iter    objective    inf_pr   inf_du lg(mu)  ||d||  lg(rg) alpha_du alpha_pr  ls
  10  2.3394740e+01 0.00e+00 3.54e-03  -5.6 2.04e-01    -  1.00e+00 1.00e+00f  1
  11  2.3360225e+01 0.00e+00 6.20e-02  -3.5 2.40e+00    -  3.28e-01 1.00e+00f  1
  12  2.3099440e+01 0.00e+00 3.34e-02  -4.3 2.20e+00    -  1.00e+00 2.23e-01f  1
  13  2.3074569e+01 0.00e+00 2.73e-02  -4.7 2.03e+00    -  1.00e+00 8.65e-02f  2
  14  2.3004406e+01 0.00e+00 1.23e-02  -3.5 3.96e-01    -  1.00e+00 1.00e+00f  1
  15  2.2957336e+01 0.00e+00 4.05e-03  -3.1 3.24e-01    -  8.34e-01 1.00e+00f  1
  16  2.2881122e+01 0.00e+00 8.85e-03  -4.7 8.67e-01    -  7.59e-01 8.90e-01f  1
  17  2.2811977e+01 0.00e+00 2.16e-02  -4.0 4.63e+00    -  1.00e+00 3.44e-01f  2
  18  2.2790935e+01 0.00e+00 2.34e-02  -3.7 2.55e+00    -  1.00e+00 1.97e-01f  3
  19  2.2779704e+01 0.00e+00 6.25e-03  -4.0 6.98e-01    -  1.00e+00 5.00e-01f  2
iter    objective    inf_pr   inf_du lg(mu)  ||d||  lg(rg) alpha_du alpha_pr  ls
  20  2.2666453e+01 0.00e+00 2.27e-02  -4.2 1.56e+00    -  1.00e+00 7.33e-01f  1
  21  2.2541556e+01 0.00e+00 3.12e-02  -4.4 2.20e+00    -  1.00e+00 2.28e-01f  1
  22  2.2520217e+01 0.00e+00 2.87e-02  -4.0 1.47e+01    -  1.00e+00 8.44e-02f  3
  23  2.2560265e+01 0.00e+00 8.45e-02  -2.5 1.25e+02    -  1.00e+00 4.80e-03f  4
  24  2.2417708e+01 0.00e+00 3.79e-02  -2.6 1.33e+00    -  8.80e-01 1.00e+00f  1
  25  2.2056153e+01 0.00e+00 3.13e-02  -2.8 5.00e+00    -  9.85e-01 1.24e-01f  1
  26  2.1996952e+01 0.00e+00 1.31e-01  -2.4 1.81e+01    -  4.65e-01 5.47e-02f  3
  27  2.1803539e+01 0.00e+00 2.66e-01  -3.3 2.31e+00    -  1.00e+00 5.48e-01f  1
  28  2.1161677e+01 0.00e+00 3.44e-01  -2.4 3.79e+00    -  1.00e+00 4.81e-01f  1
  29  2.7658287e+01 0.00e+00 4.46e-01  -1.6 3.67e+00    -  5.59e-01 5.00e-01f  2
iter    objective    inf_pr   inf_du lg(mu)  ||d||  lg(rg) alpha_du alpha_pr  ls
  30  2.3337584e+01 0.00e+00 5.66e-01  -1.8 3.77e+00    -  3.43e-01 7.31e-02f  4
  31  2.1622945e+01 0.00e+00 5.39e-01  -1.8 9.59e+00    -  8.41e-02 1.21e-02f  6
  32  2.0991690e+01 0.00e+00 5.16e-01  -1.8 8.08e-01    -  1.00e+00 1.00e+00f  1
  33  2.0633810e+01 0.00e+00 1.03e-01  -1.5 2.40e+00    -  1.00e+00 5.00e-01f  2
  34  2.0040875e+01 0.00e+00 1.06e-01  -2.6 7.30e-01    -  9.92e-01 5.00e-01f  2
  35  2.0047922e+01 0.00e+00 5.81e-02  -2.0 1.26e+00    -  8.92e-01 5.00e-01f  2
  36  2.0042491e+01 0.00e+00 8.92e-02  -2.1 7.30e-01    -  1.00e+00 2.50e-01f  3
  37  1.9534480e+01 0.00e+00 2.87e-02  -2.1 2.24e-01    -  1.00e+00 1.00e+00f  1
  38  1.9061223e+01 0.00e+00 1.29e-01  -2.4 4.04e+00    -  7.66e-01 6.93e-02f  3
  39  1.8518770e+01 0.00e+00 3.27e-02  -3.4 4.43e-01    -  9.99e-01 1.00e+00f  1
iter    objective    inf_pr   inf_du lg(mu)  ||d||  lg(rg) alpha_du alpha_pr  ls
  40  1.8086398e+01 0.00e+00 8.02e-02  -2.8 3.38e+00    -  1.00e+00 9.60e-02f  3
  41  1.7834413e+01 0.00e+00 6.10e-02  -3.1 1.74e+00    -  1.00e+00 7.68e-02f  4
  42  1.7627672e+01 0.00e+00 2.14e-01  -3.3 2.73e+00    -  1.00e+00 8.65e-02f  4
  43  1.7560458e+01 0.00e+00 7.52e-02  -2.7 1.20e+01    -  1.00e+00 8.53e-03f  6
  44  1.7292030e+01 0.00e+00 2.48e-01  -2.5 1.21e+00    -  9.88e-01 5.00e-01f  2
  45  1.6459646e+01 0.00e+00 7.09e-02  -2.6 2.86e+00    -  1.00e+00 1.70e-01f  2
  46  1.6108388e+01 0.00e+00 1.26e-01  -3.4 6.18e-01    -  9.13e-01 5.00e-01f  2
  47  1.5950486e+01 0.00e+00 2.18e-01  -2.5 2.17e+00    -  1.00e+00 1.16e-01f  4
  48  1.4412157e+01 0.00e+00 2.43e-01  -2.1 4.37e+00    -  1.00e+00 4.85e-01f  2
  49  1.3752104e+01 0.00e+00 7.20e-01  -2.2 6.65e+00    -  1.00e+00 2.80e-01f  2
iter    objective    inf_pr   inf_du lg(mu)  ||d||  lg(rg) alpha_du alpha_pr  ls
  50  1.3564750e+01 0.00e+00 7.75e-01  -1.5 1.50e+00    -  5.30e-01 6.25e-02f  5
  51  1.3292969e+01 0.00e+00 7.19e-01  -2.0 1.50e+00    -  1.00e+00 2.50e-01f  3
  52  1.2852682e+01 0.00e+00 2.17e-01  -2.1 2.37e+00    -  8.08e-01 5.00e-01f  2
  53  1.1910765e+01 0.00e+00 3.21e-01  -2.2 4.84e+00    -  9.97e-01 2.00e-01f  2
  54  1.1363801e+01 0.00e+00 7.28e-02  -2.2 1.26e+00    -  1.00e+00 1.72e-01f  3
  55  1.0341851e+01 0.00e+00 7.19e-02  -2.3 4.21e-01    -  8.96e-01 1.00e+00f  1
  56  9.3893400e+00 0.00e+00 1.03e-01  -2.5 4.50e+00    -  9.90e-01 2.08e-01f  2
  57  8.8364824e+00 0.00e+00 3.60e-01  -2.2 3.35e+00    -  1.00e+00 1.50e-01f  3
  58  8.6791388e+00 0.00e+00 2.02e-01  -2.2 3.99e+00    -  9.08e-01 7.80e-02f  3
  59  8.1321660e+00 0.00e+00 3.81e-01  -2.3 1.35e+00    -  9.90e-01 2.12e-01f  2
iter    objective    inf_pr   inf_du lg(mu)  ||d||  lg(rg) alpha_du alpha_pr  ls
  60  6.8507565e+00 0.00e+00 9.57e-01  -2.7 5.36e-01    -  1.00e+00 1.00e+00f  1
  61  6.9680260e+00 0.00e+00 2.65e-01  -2.2 4.31e+00    -  5.00e-01 6.76e-02f  3
  62  6.2562684e+00 0.00e+00 2.12e-01  -2.6 5.95e-01    -  1.00e+00 3.38e-01f  2
  63  6.1885530e+00 0.00e+00 2.63e-01  -2.3 2.42e+00    -  9.52e-01 1.40e-01f  2
  64  6.2869449e+00 0.00e+00 8.32e-01  -2.4 5.39e-01    -  9.90e-01 5.00e-01f  2
  65  6.1789479e+00 0.00e+00 3.58e-01  -2.5 9.86e-01    -  7.55e-01 2.50e-01f  3
  66  6.0158616e+00 0.00e+00 3.63e-01  -2.6 1.16e+00    -  1.00e+00 9.64e-02f  2
  67  5.7760883e+00 0.00e+00 1.60e-01  -2.6 2.96e-01    -  9.98e-01 1.00e+00f  1
  68  5.6873274e+00 0.00e+00 5.69e-02  -2.8 1.03e+00    -  6.43e-01 1.22e-01f  3
  69  5.6642923e+00 0.00e+00 1.84e-01  -3.1 5.27e-01    -  9.85e-01 3.28e-01f  2
iter    objective    inf_pr   inf_du lg(mu)  ||d||  lg(rg) alpha_du alpha_pr  ls
  70  5.6532787e+00 0.00e+00 2.15e-01  -2.8 4.03e-01    -  1.00e+00 2.52e-02f  6
  71  5.5963922e+00 0.00e+00 2.47e-01  -3.7 7.91e-02    -  1.00e+00 1.00e+00f  1
  72  5.6067824e+00 0.00e+00 1.09e-01  -3.0 5.97e-01    -  1.00e+00 6.25e-02f  5
  73  5.5482103e+00 0.00e+00 5.35e-02  -3.1 6.11e-02    -  1.00e+00 1.00e+00f  1
  74  5.5383091e+00 0.00e+00 5.63e-02  -3.7 7.38e-02    -  1.00e+00 5.00e-01f  2
  75  5.5302773e+00 0.00e+00 8.00e-02  -4.2 2.76e-01    -  1.00e+00 2.50e-01f  3
  76  5.4915867e+00 0.00e+00 4.35e-02  -5.1 6.96e-01    -  1.00e+00 1.46e-01f  3
  77  5.4833667e+00 0.00e+00 9.15e-02  -4.3 1.63e-01    -  1.00e+00 2.50e-01f  3
  78  5.4813017e+00 0.00e+00 5.41e-02  -4.5 2.51e-01    -  1.00e+00 6.25e-02f  5
  79  5.4779340e+00 0.00e+00 7.73e-02  -5.2 2.07e-01    -  1.00e+00 4.87e-02f  5
iter    objective    inf_pr   inf_du lg(mu)  ||d||  lg(rg) alpha_du alpha_pr  ls
  80  5.4693559e+00 0.00e+00 6.27e-02  -6.4 1.72e-01    -  1.00e+00 2.50e-01f  3
  81  5.4657059e+00 0.00e+00 8.07e-02  -5.8 3.24e-01    -  1.00e+00 2.50e-01f  3
  82  5.4533404e+00 0.00e+00 4.72e-02  -5.7 3.65e-01    -  1.00e+00 8.37e-02f  3
  83  5.4521554e+00 0.00e+00 1.07e-01  -4.8 5.55e-02    -  1.00e+00 5.00e-01f  2
  84  5.4473962e+00 0.00e+00 3.22e-02  -4.8 1.43e+00    -  1.00e+00 5.58e-02f  3
  85  5.4427525e+00 0.00e+00 3.00e-02  -5.0 1.16e+00    -  1.00e+00 2.76e-02f  3
  86  5.4386219e+00 0.00e+00 6.13e-02  -4.0 2.49e-01    -  1.00e+00 3.47e-02f  5
  87  5.4243090e+00 0.00e+00 2.26e-02  -4.1 3.94e-02    -  1.00e+00 1.00e+00f  1
  88  5.4227134e+00 0.00e+00 3.77e-02  -4.6 7.45e-01    -  1.00e+00 1.53e-01f  2
  89  5.4200187e+00 0.00e+00 3.06e-02  -3.8 4.34e-01    -  1.00e+00 4.58e-02f  4
iter    objective    inf_pr   inf_du lg(mu)  ||d||  lg(rg) alpha_du alpha_pr  ls
  90  5.4173558e+00 0.00e+00 8.24e-02  -3.6 1.22e+00    -  1.00e+00 6.40e-02f  4
  91  5.4051804e+00 0.00e+00 6.94e-02  -4.0 3.07e+00    -  1.00e+00 7.41e-02f  3
  92  5.3712966e+00 0.00e+00 1.22e-01  -4.7 4.78e+00    -  1.00e+00 6.51e-02f  4
  93  5.3829969e+00 0.00e+00 1.34e-01  -2.9 1.13e+00    -  1.00e+00 3.12e-02f  6
  94  5.3978352e+00 0.00e+00 4.99e-02  -3.1 2.18e-01    -  1.00e+00 5.00e-01f  2
  95  5.4091182e+00 0.00e+00 9.58e-02  -3.1 1.12e+00    -  9.93e-01 2.50e-01f  3
  96  5.4021879e+00 0.00e+00 3.94e-02  -3.1 1.88e+00    -  1.00e+00 3.70e-02f  4
  97  5.3898989e+00 0.00e+00 6.53e-02  -3.1 1.81e+00    -  8.47e-01 9.29e-02f  4
  98  5.3550155e+00 0.00e+00 3.28e-02  -3.1 1.29e+00    -  1.00e+00 3.15e-01f  2
  99  5.3591405e+00 0.00e+00 3.54e-02  -2.8 3.16e+00    -  1.00e+00 5.30e-02f  5
iter    objective    inf_pr   inf_du lg(mu)  ||d||  lg(rg) alpha_du alpha_pr  ls
 100  5.3610474e+00 0.00e+00 3.32e-02  -2.9 1.15e+00    -  1.00e+00 2.50e-01f  3
 101  5.3560633e+00 0.00e+00 1.47e-02  -2.9 9.03e-01    -  1.00e+00 6.25e-02f  5
 102  5.3496579e+00 0.00e+00 2.35e-02  -2.9 2.40e-01    -  1.00e+00 5.00e-01f  2
 103  5.3426516e+00 0.00e+00 4.97e-02  -3.9 1.04e+00    -  1.00e+00 4.00e-02f  5
 104  5.3310058e+00 0.00e+00 7.58e-02  -4.7 5.42e-01    -  1.00e+00 4.35e-01f  2
 105  5.3186707e+00 0.00e+00 8.25e-02  -5.1 1.28e+00    -  1.00e+00 2.51e-01f  2
 106  5.3305745e+00 0.00e+00 4.48e-02  -2.9 2.36e+00    -  1.00e+00 1.05e-01f  4
 107  5.3235724e+00 0.00e+00 3.84e-02  -3.1 3.22e-01    -  1.00e+00 1.25e-01f  4
 108  5.3466808e+00 0.00e+00 6.38e-02  -3.1 2.31e-01    -  1.00e+00 1.00e+00f  1
 109  5.3405572e+00 0.00e+00 7.65e-02  -3.1 8.91e-01    -  1.00e+00 6.35e-02f  4
iter    objective    inf_pr   inf_du lg(mu)  ||d||  lg(rg) alpha_du alpha_pr  ls
 110  5.3375821e+00 0.00e+00 3.62e-02  -3.1 3.63e-01    -  1.00e+00 3.12e-02f  6
 111  5.3179893e+00 0.00e+00 4.18e-02  -3.1 5.92e-02    -  1.00e+00 1.00e+00f  1
 112  5.2864171e+00 0.00e+00 1.77e-01  -4.5 1.94e-01    -  1.00e+00 7.28e-01f  1
 113  5.3229828e+00 0.00e+00 9.34e-02  -3.3 1.31e-01    -  1.00e+00 1.00e+00f  1
 114  5.3200744e+00 0.00e+00 9.84e-02  -3.5 7.86e-01    -  4.51e-01 1.21e-01f  3
 115  5.3084571e+00 0.00e+00 5.11e-02  -3.5 1.13e-01    -  1.00e+00 5.00e-01f  2
 116  5.2899868e+00 0.00e+00 2.77e-02  -3.5 2.40e-01    -  1.00e+00 2.50e-01f  3
 117  5.2895854e+00 0.00e+00 4.32e-02  -3.5 2.64e-01    -  8.71e-01 6.25e-02f  5
 118  5.2840189e+00 0.00e+00 2.44e-02  -3.5 7.01e-02    -  1.00e+00 2.27e-01f  3
 119  5.2695076e+00 0.00e+00 2.45e-02  -4.8 9.37e-02    -  1.00e+00 1.00e+00f  1
iter    objective    inf_pr   inf_du lg(mu)  ||d||  lg(rg) alpha_du alpha_pr  ls
 120  5.2683558e+00 0.00e+00 4.23e-02  -3.9 6.08e-01    -  1.00e+00 1.25e-01f  4
 121  5.2666414e+00 0.00e+00 8.86e-03  -4.1 2.69e-01    -  1.00e+00 9.32e-02f  4
 122  5.2649512e+00 0.00e+00 1.90e-02  -4.6 1.02e-01    -  1.00e+00 5.00e-01f  2
 123  5.2617881e+00 0.00e+00 3.68e-02  -6.0 2.03e-01    -  1.00e+00 3.22e-01f  2
 124  5.2616150e+00 0.00e+00 3.66e-02  -5.5 1.30e+00    -  1.00e+00 3.10e-02f  5
 125  5.2610271e+00 0.00e+00 4.34e-02  -4.4 7.29e-01    -  1.00e+00 1.70e-02f  4
 126  5.2605079e+00 0.00e+00 3.00e-02  -4.1 1.03e-01    -  1.00e+00 2.50e-01f  3
 127  5.2599044e+00 0.00e+00 9.89e-03  -4.6 5.96e-01    -  1.00e+00 3.12e-02f  6
 128  5.2616279e+00 0.00e+00 3.29e-02  -3.9 2.02e-01    -  1.00e+00 1.01e-01f  4
 129  5.2617204e+00 0.00e+00 3.47e-02  -4.0 1.20e-01    -  1.00e+00 1.25e-01f  4
iter    objective    inf_pr   inf_du lg(mu)  ||d||  lg(rg) alpha_du alpha_pr  ls
 130  5.2613121e+00 0.00e+00 2.81e-02  -4.0 1.42e-01    -  8.22e-01 1.25e-01f  4
 131  5.2600517e+00 0.00e+00 2.01e-02  -4.0 1.66e-02    -  1.00e+00 1.00e+00f  1
 132  5.2595638e+00 0.00e+00 4.06e-03  -4.0 4.73e-03    -  1.00e+00 1.00e+00f  1
 133  5.2573858e+00 0.00e+00 3.16e-02  -5.3 9.02e-03    -  1.00e+00 1.00e+00f  1
 134  5.2566929e+00 0.00e+00 1.73e-02  -4.9 1.17e-02    -  1.00e+00 1.00e+00f  1
 135  5.2563280e+00 0.00e+00 9.89e-03  -4.7 2.27e-01    -  1.00e+00 3.12e-02f  6
 136  5.2559690e+00 0.00e+00 3.07e-03  -4.9 6.01e-03    -  1.00e+00 1.00e+00f  1
 137  5.2558208e+00 0.00e+00 3.11e-03  -5.9 2.98e-02    -  1.00e+00 2.50e-01f  3
 138  5.2555580e+00 0.00e+00 1.31e-02  -7.1 1.78e-02    -  1.00e+00 4.96e-01f  2
 139  5.2554657e+00 0.00e+00 9.62e-03  -7.7 8.81e-03    -  1.00e+00 2.45e-01f  3
iter    objective    inf_pr   inf_du lg(mu)  ||d||  lg(rg) alpha_du alpha_pr  ls
 140  5.2553276e+00 0.00e+00 1.02e-02  -7.8 6.12e-02    -  1.00e+00 5.00e-01f  2
 141  5.2551090e+00 0.00e+00 7.49e-03  -8.8 1.85e-01    -  1.00e+00 4.61e-02f  4
 142  5.2550877e+00 0.00e+00 1.10e-02  -7.6 1.86e-01    -  1.00e+00 7.65e-03f  8
 143  5.2549295e+00 0.00e+00 3.42e-03  -8.7 1.35e-02    -  1.00e+00 1.00e+00f  1
 144  5.2545656e+00 0.00e+00 2.73e-03 -10.0 2.33e-02    -  1.00e+00 3.94e-01f  1
 145  5.2545547e+00 0.00e+00 4.67e-03 -10.4 1.59e-01    -  1.00e+00 1.43e-03f  1
 146  5.2545478e+00 0.00e+00 8.47e-03  -7.3 4.49e-01    -  3.62e-01 8.18e-03f  6
 147  5.2541847e+00 0.00e+00 5.07e-03  -8.9 7.48e-02    -  1.00e+00 5.00e-01f  2
 148  5.2539018e+00 0.00e+00 2.26e-03 -10.0 1.10e-01    -  1.00e+00 1.23e-01f  4
 149  5.2539020e+00 0.00e+00 2.60e-03  -7.2 6.14e-02    -  3.42e-01 7.81e-03f  8
iter    objective    inf_pr   inf_du lg(mu)  ||d||  lg(rg) alpha_du alpha_pr  ls
 150  5.2537975e+00 0.00e+00 2.81e-03  -7.8 9.39e-03    -  1.00e+00 1.00e+00f  1
 151  5.2537659e+00 0.00e+00 9.68e-04  -8.6 1.98e-02    -  1.00e+00 1.51e-01f  2
 152  5.2537453e+00 0.00e+00 2.17e-03  -9.6 1.00e-02    -  1.00e+00 9.98e-01f  1
 153  5.2537605e+00 0.00e+00 4.32e-03  -6.9 1.10e-01    -  2.50e-01 3.12e-02f  6
 154  5.2537389e+00 0.00e+00 2.97e-03  -7.6 1.36e-01    -  1.00e+00 3.00e-02f  1
 155  5.2537289e+00 0.00e+00 1.02e-03  -8.9 3.36e-01    -  1.00e+00 6.25e-02f  5
 156  5.2537505e+00 0.00e+00 4.50e-03  -6.6 6.53e-01    -  1.86e-01 3.91e-03f  9
 157  5.2537532e+00 0.00e+00 4.50e-03  -7.4 6.07e-02    -  1.00e+00 1.56e-02f  7
 158  5.2537405e+00 0.00e+00 2.36e-03  -7.4 6.58e-03    -  9.31e-01 5.00e-01f  2
 159  5.2536977e+00 0.00e+00 2.03e-03  -7.4 3.85e-02    -  1.00e+00 1.14e-01f  1
iter    objective    inf_pr   inf_du lg(mu)  ||d||  lg(rg) alpha_du alpha_pr  ls
 160  5.2538110e+00 0.00e+00 6.05e-03  -6.5 7.93e-02    -  1.00e+00 6.25e-02f  5
 161  5.2537093e+00 0.00e+00 1.22e-03  -6.6 9.07e-03    -  1.00e+00 1.00e+00f  1
 162  5.2536995e+00 0.00e+00 1.62e-03  -6.6 1.31e-01    -  1.00e+00 3.12e-02f  6
 163  5.2536939e+00 0.00e+00 2.75e-03  -6.6 7.28e-03    -  1.00e+00 8.76e-02f  3
 164  5.2536889e+00 0.00e+00 1.14e-03  -8.7 2.66e-02    -  1.00e+00 6.50e-02f  4
 165  5.2536880e+00 0.00e+00 1.22e-03  -8.5 2.85e-02    -  1.00e+00 3.12e-02f  6
 166  5.2536789e+00 0.00e+00 1.30e-03  -9.6 3.09e-03    -  1.00e+00 4.17e-01f  2
 167  5.2536766e+00 0.00e+00 5.89e-04 -11.0 1.67e-02    -  1.00e+00 2.47e-01f  3
 168  5.2536752e+00 0.00e+00 1.48e-03 -10.2 1.42e-01    -  1.00e+00 2.54e-03f  7
 169  5.2536690e+00 0.00e+00 6.28e-04 -11.0 1.49e-03    -  1.00e+00 9.91e-01f  1
iter    objective    inf_pr   inf_du lg(mu)  ||d||  lg(rg) alpha_du alpha_pr  ls
 170  5.2536672e+00 0.00e+00 8.13e-04 -11.0 3.04e-02    -  1.00e+00 1.25e-01f  4
 171  5.2536670e+00 0.00e+00 3.12e-04 -11.0 1.03e-01    -  1.00e+00 1.08e-03f 10
 172  5.2536651e+00 0.00e+00 1.40e-04 -11.0 2.22e-03    -  1.00e+00 1.00e+00f  1
 173  5.2536649e+00 0.00e+00 3.75e-04 -11.0 2.95e-02    -  1.00e+00 1.91e-02f  5
 174  5.2536668e+00 0.00e+00 6.13e-04  -7.6 4.17e-03    -  1.00e+00 2.50e-01f  3
 175  5.2536667e+00 0.00e+00 5.82e-04  -7.7 8.30e-03    -  1.00e+00 3.12e-02f  6
 176  5.2536658e+00 0.00e+00 3.21e-04  -7.7 1.37e-02    -  1.00e+00 6.25e-02f  5
 177  5.2536657e+00 0.00e+00 3.94e-04  -7.7 4.77e-02    -  1.00e+00 2.79e-02f  5
 178  5.2536657e+00 0.00e+00 3.34e-04  -7.7 1.89e-01    -  1.00e+00 1.95e-03f 10
 179  5.2536660e+00 0.00e+00 1.83e-04  -7.7 3.88e-04    -  1.00e+00 1.00e+00f  1
iter    objective    inf_pr   inf_du lg(mu)  ||d||  lg(rg) alpha_du alpha_pr  ls
 180  5.2536641e+00 0.00e+00 1.90e-04  -7.7 1.47e-03    -  1.00e+00 1.00e+00f  1
 181  5.2536641e+00 0.00e+00 1.14e-04  -9.1 4.28e-03    -  1.00e+00 3.12e-02f  6
 182  5.2536640e+00 0.00e+00 1.51e-04 -10.4 2.75e-03    -  1.00e+00 2.62e-02f  4
 183  5.2536634e+00 0.00e+00 2.89e-04 -11.0 4.34e-04    -  1.00e+00 1.00e+00f  1
 184  5.2536633e+00 0.00e+00 1.88e-04 -11.0 4.22e-03    -  1.00e+00 7.02e-02f  3
 185  5.2536633e+00 0.00e+00 1.33e-04 -11.0 3.91e-03    -  1.00e+00 1.56e-02f  7
 186  5.2536628e+00 0.00e+00 9.64e-05  -9.9 1.01e-03    -  1.00e+00 1.00e+00f  1
 187  5.2536627e+00 0.00e+00 1.71e-04 -11.0 3.20e-03    -  1.00e+00 7.30e-02f  4
 188  5.2536627e+00 0.00e+00 1.08e-04 -11.0 3.98e-03    -  1.00e+00 1.56e-02f  7
 189  5.2536627e+00 0.00e+00 1.57e-04 -10.8 2.83e-03    -  1.00e+00 3.19e-02f  3
iter    objective    inf_pr   inf_du lg(mu)  ||d||  lg(rg) alpha_du alpha_pr  ls
 190  5.2536625e+00 0.00e+00 2.14e-04 -10.8 3.06e-03    -  1.00e+00 2.38e-01f  2
 191  5.2536624e+00 0.00e+00 1.71e-04 -11.0 1.56e-02    -  1.00e+00 1.67e-02f  6
 192  5.2536623e+00 0.00e+00 1.01e-04 -11.0 1.67e-02    -  1.00e+00 3.91e-03f  9
 193  5.2536622e+00 0.00e+00 6.28e-05 -10.2 1.40e-04    -  1.00e+00 9.12e-01f  1
 194  5.2536622e+00 0.00e+00 1.67e-05 -11.0 1.04e-04    -  1.00e+00 1.00e+00f  1
 195  5.2536621e+00 0.00e+00 2.31e-05 -11.0 8.95e-05    -  1.00e+00 5.00e-01f  2
 196  5.2536621e+00 0.00e+00 3.96e-05 -11.0 1.68e-04    -  1.00e+00 5.00e-01f  2
 197  5.2536621e+00 0.00e+00 1.13e-04 -11.0 2.14e-02    -  1.00e+00 1.95e-03f 10
 198  5.2536621e+00 0.00e+00 2.89e-05 -11.0 3.11e-04    -  1.00e+00 3.12e-02f  6
 199  5.2536621e+00 0.00e+00 2.92e-05 -11.0 5.23e-05    -  1.00e+00 2.50e-01f  3
iter    objective    inf_pr   inf_du lg(mu)  ||d||  lg(rg) alpha_du alpha_pr  ls
 200  5.2536621e+00 0.00e+00 2.22e-05 -11.0 2.48e-04    -  1.00e+00 1.25e-01f  4

Number of Iterations....: 200

                                   (scaled)                 (unscaled)
Objective...............:   1.5096459911008905e-01    5.2536621347880770e+00
Dual infeasibility......:   2.2188139297995100e-05    7.7216107589749353e-04
Constraint violation....:   0.0000000000000000e+00    0.0000000000000000e+00
Variable bound violation:   9.8519712078747927e-09    9.8519712078747927e-09
Complementarity.........:   1.0014856979350470e-11    3.4852326444667378e-10
Overall NLP error.......:   2.2188139297995100e-05    7.7216107589749353e-04


Number of objective function evaluations             = 1184
Number of objective gradient evaluations             = 201
Number of equality constraint evaluations            = 0
Number of inequality constraint evaluations          = 1184
Number of equality constraint Jacobian evaluations   = 0
Number of inequality constraint Jacobian evaluations = 201
Number of Lagrangian Hessian evaluations             = 0
Total seconds in IPOPT                               = 30.183

EXIT: Maximum Number of Iterations Exceeded.
